outputs/case_33.model.txt
improvement_period_months = 0
approval_reported_to_authority = False
unapproved_stop_duration_months = 0
stop_business_duration_months = 0
deposit_type_bank = True
professional_investment_experience_years = 0
deposit_type_financial_bond = False
has_securities_analyst_qualification = False
deposit_amount_withdrawn = 5000000
deposit_institution_changed = False
net_asset_value_per_share = 0
paid_in_capital = 10000000
assets = 4000000
liabilities = 5000000
deposit_type_cash = False
annual_report_submission_months_after_year_end = 0
deposit_type_government_bond = False
other_qualifications_sufficient = True
has_approved_college_degree = False
par_value_per_share = 1/2
stop_business_application_submitted = False
academic_performance_good = False
improvement_ordered_by_authority = True
no_other_equivalent_responsibility = True
department_and_staffing_requirements = True
responsible_personnel_qualification_met = True
department_head_adequate_and_qualified = True
general_manager_qualification = True
manager_adequate_and_qualified = True
license_duration_months = 0
net_asset_value_below_par_restriction = False
deposit_single_financial_institution = True
staff_adequate_and_qualified = True
investment_research_department_established = True
stop_business_permit_revoked_if_no_reopen = False
deposit_exempted_by_fiduciary_management = False
business_guarantee_deposit_required = True
net_asset_value_below_par_improvement_required = True
business_guarantee_deposit_change_requires_approval = True
annual_report_supervisor_approved = True
annual_report_board_approved = True
stop_business_permit_revoked_if_unapproved_stop = False
annual_report_audited = True
reopen_application_submitted = True
business_guarantee_deposit_amount = 10000000
financial_report_annual_submission = True
financial_accounting_department_established = True
deposit_exempted_by_overseas_fund = False
stop_business_approval_limit = True
guarantee_deposit_amount = 5000000
deposit_pledge_set = False
business_guarantee_deposit_conditions = True
penalty = False
reopen_application_approved = True
deposit_provide_guarantee = False
general_manager_required = True
asset_insufficient_liability_improvement_required = True
general_manager_count = 1
stop_business_application_once = True